LAMMPS (31 Mar 2017)
#-------------------------- Initial Setup -------------------------------------#
  units             lj
  atom_style        atomic
  boundary          p p p # PBC
#------------------------------------------------------------------------------#


#-------------------------- Atomic Setup --------------------------------------#
# Reads data from thermal simulation and adds pair_coeff's because read data
# does not store these correctly

  pair_style        lj/cut 2.5 # Define interaction potential.
  read_data         data.lowerT
  orthogonal box = (-4.705 -4.705 -4.705) to (4.705 4.705 4.705)
  1 by 2 by 2 MPI processor grid
  reading atoms ...
  1000 atoms
  reading velocities ...
  1000 velocities

  pair_coeff        1 1 1.0 1.0
  pair_coeff        1 2 1.5 0.80
  pair_coeff        2 2 0.5 0.88

#------------------------------------------------------------------------------#


#-------------------------------- Dumps ---------------------------------------#
# Dump stride is choosen so that frames are printed every sqrt(\epsilon/\sigma)
# timesteps as in Schoenholz Nature 2016. Subsequent simulations should have
# higher stride once we do not need to calculate p-hop
  dump              dumpID all custom 200 run.lammpstrj id type x y z
#------------------------------------------------------------------------------#


#------------------------------ Fixes -----------------------------------------#
# Temperature was choosen by looking at Sam's PNAs T=0.47 is above MCT of KA
# model
  fix               integrator all nvt temp 0.47 0.47 1.0
#------------------------------------------------------------------------------#


#------------------------- Thermo stuff ---------------------------------------#
# Timestep chosen so that we are well below (~1/40) the fastest vibrational
# frequency of the system (sqrt(m/V''(r0)) where r0 is the minima of the LJ
# potential. Thermo choosen for same reason as dump. Initial velocity choosen
# to be temperature of initial randomization
  thermo_style      custom step pe ke press temp # Output.
  thermo            200 # Output stride.
  timestep          0.005
#------------------------------------------------------------------------------#


#------------------------- Running the Simulation -----------------------------#
# Simulation length choosen to be 1x \tau_alpha time. This should give 1000
# frames.
  run               200000
Neighbor list info ...
  update every 1 steps, delay 10 steps, check yes
  max neighbors/atom: 2000, page size: 100000
  master list distance cutoff = 2.8
  ghost atom cutoff = 2.8
  binsize = 1.4, bins = 7 7 7
  1 neighbor lists, perpetual/occasional/extra = 1 0 0
  (1) pair lj/cut, perpetual
      attributes: half, newton on
      pair build: half/bin/atomonly/newton
      stencil: half/bin/3d/newton
      bin: standard
Per MPI rank memory allocation (min/avg/max) = 4.011 | 4.012 | 4.013 Mbytes
Step PotEng KinEng Press Temp 
       0   -7.6531389   0.69454495    2.8701978   0.46349346 
     200   -7.6373716   0.70186841    2.9550649   0.46838065 
     400   -7.6019487   0.70021674    3.1949006   0.46727844 
     600   -7.6084176   0.70726519    3.2727057   0.47198211 
     800   -7.6161639   0.70517829    3.0876254   0.47058945 
    1000    -7.642285   0.70973732    2.9189637   0.47363185 
    1200   -7.6544403    0.6826609    2.8386187   0.45556283 
    1400   -7.6424068   0.66115355    2.9870271   0.44121024 
    1600    -7.638402   0.71437812    2.9624202   0.47672881 
    1800   -7.6183408   0.71091891    3.1054334   0.47442036 
    2000   -7.6037972   0.70102633    3.2094666    0.4678187 
    2200   -7.5885528    0.6786073    3.3185942   0.45285772 
    2400   -7.6068649   0.67269443    3.1780953   0.44891187 
    2600   -7.6541941   0.69693587     2.892891     0.465089 
    2800    -7.668628    0.7232998    2.8262392   0.48268255 
    3000   -7.6207824   0.72531617    3.1503766   0.48402814 
    3200   -7.6101258   0.71753712    3.1810096   0.47883692 
    3400   -7.6221427    0.7068074    3.0192317   0.47167661 
    3600   -7.6335455   0.69077889    3.0104679   0.46098024 
    3800    -7.640345   0.69190308    3.0025024   0.46173045 
    4000   -7.6361928   0.70660813    3.0601921   0.47154363 
    4200    -7.585867   0.72508708    3.4197549   0.48387526 
    4400   -7.5963195   0.73154488    3.2248851   0.48818477 
    4600   -7.6106582    0.7002728    3.1585475   0.46731585 
    4800   -7.6247788   0.68422739    3.1317653    0.4566082 
    5000   -7.6592789   0.71067198    2.8971641   0.47425558 
    5200   -7.6187692   0.68951639    3.0966437   0.46013773 
    5400   -7.6184055   0.72884746    3.2057627   0.48638469 
    5600    -7.591816   0.70162292    3.3102712   0.46821683 
    5800   -7.6127666   0.70055294    3.1485704    0.4675028 
    6000    -7.630956   0.70634348    3.0081755   0.47136702 
    6200    -7.636029   0.70898704    3.0770625   0.47313116 
    6400   -7.6032669   0.68056064    3.2120784   0.45416125 
    6600      -7.6136   0.70762752    3.1378499   0.47222391 
    6800   -7.5988323   0.72734876    3.2470216   0.48538456 
    7000   -7.6134616   0.72550359    3.1871629   0.48415321 
    7200   -7.6511161   0.72167732    2.9078354   0.48159982 
    7400   -7.6304602   0.68948604    2.9969164   0.46011748 
    7600   -7.6398081   0.70476741    3.0085404   0.47031526 
    7800   -7.6380072   0.73291996     3.042354   0.48910241 
    8000   -7.5927458    0.7199155    3.3496124   0.48042409 
    8200   -7.6108219   0.71311938    3.1333244   0.47588881 
    8400   -7.6317332   0.68803934    2.9704271   0.45915205 
    8600   -7.6505792   0.70920243    2.9038582    0.4732749 
    8800   -7.6297049   0.70625527    3.0525509   0.47130816 
    9000    -7.633132   0.73369905    3.0214868   0.48962232 
    9200   -7.6141727   0.71858752    3.1406974   0.47953788 
    9400   -7.6504226    0.7184654    2.8861219   0.47945639 
    9600   -7.6374966   0.67794387    3.0619897     0.452415 
    9800   -7.6602934   0.71297707    2.8617211   0.47579384 
   10000   -7.6242457   0.70927126    3.1349179   0.47332083 
   10200   -7.6342968   0.73782349    3.0281557    0.4923747 
   10400   -7.6333404   0.72539667    3.0412039   0.48408186 
   10600   -7.6109047   0.68760948    3.2022671   0.45886518 
   10800   -7.6436313   0.70472712    2.9615475   0.47028837 
   11000   -7.6364784    0.6822837     3.007742   0.45531111 
   11200    -7.653927   0.68027419     2.873232    0.4539701 
   11400   -7.6418275   0.68241674    2.9359482   0.45539989 
   11600   -7.6414342   0.72453126    2.9314732   0.48350434 
   11800   -7.6165668   0.71446265     3.111386   0.47678522 
   12000   -7.6056485   0.69097011    3.1334306   0.46110785 
   12200   -7.6439983   0.69357297    2.9873199   0.46284482 
   12400   -7.6547541   0.68267188    2.7453013   0.45557016 
   12600   -7.6355759   0.69437553    2.9510363    0.4633804 
   12800    -7.627108   0.73026887    3.1763927   0.48733324 
   13000    -7.616541    0.7079299     3.177054   0.47242569 
   13200   -7.6401569   0.70356534    2.9726696   0.46951307 
   13400   -7.6093145   0.65586312    3.1205542   0.43767976 
   13600   -7.6243373   0.68601352     3.051458   0.45780015 
   13800   -7.5858728    0.6931354     3.318714   0.46255282 
   14000   -7.6255169    0.7349208    3.1746914   0.49043764 
   14200   -7.6323286   0.72077007    3.0145065   0.48099438 
   14400   -7.6177581   0.69014754    3.0737422   0.46055892 
   14600   -7.6335734   0.70168058    3.0105636   0.46825531 
   14800    -7.622856   0.69134017    3.1524168    0.4613548 
   15000   -7.6335833   0.73044593    3.0273151    0.4874514 
   15200   -7.5841782   0.72220226    3.2983189   0.48195012 
   15400   -7.5949477   0.70354571    3.2801587   0.46949997 
   15600   -7.6113507   0.68751785      3.14363   0.45880404 
   15800   -7.6280899   0.69454955    3.0484966   0.46349653 
   16000   -7.6442516   0.71533133    2.9743732   0.47736492 
   16200   -7.6380459   0.73370064    2.9674612   0.48962339 
   16400   -7.6044248   0.73314782    3.2238413   0.48925447 
   16600   -7.6329073   0.73953818    3.1161701   0.49351897 
   16800    -7.641956   0.70750829    2.9503425   0.47214434 
   17000   -7.6376314    0.6983132    2.9830348   0.46600814 
   17200   -7.6528658   0.72605964    2.9346653   0.48452429 
   17400   -7.6020428   0.69264299    3.2868371   0.46222422 
   17600   -7.6186875   0.73616436    3.1389507   0.49126751 
   17800   -7.5965261   0.72426047    3.2637934   0.48332363 
   18000   -7.6399684   0.72186387    3.0638956    0.4817243 
   18200   -7.6265522   0.68545689    3.1001183   0.45742869 
   18400   -7.6517469    0.7106477     2.860953   0.47423938 
   18600   -7.6205609   0.70202374    3.0502902   0.46848431 
   18800   -7.6195809   0.73844634    3.0614014   0.49279035 
   19000   -7.6049468   0.72766597    3.1904381   0.48559624 
   19200   -7.6229871   0.68608942    3.1190114    0.4578508 
   19400   -7.6509502    0.7037908    2.9589235   0.46966353 
   19600   -7.6530481   0.71761675    2.8200687   0.47889006 
   19800   -7.6066583   0.69843441    3.2288426   0.46608903 
   20000   -7.6150312   0.72708155    3.2543797   0.48520624 
   20200   -7.6262442   0.71532049    3.0770108   0.47735769 
   20400    -7.639025   0.68244677    2.9314014   0.45541994 
   20600   -7.6693013   0.71504127     2.764834   0.47717135 
   20800   -7.6422374   0.71904283    2.9962281   0.47984173 
   21000   -7.6022145   0.70073728    3.2033106   0.46762581 
   21200   -7.6163792   0.71040278    3.2680743   0.47407593 
   21400   -7.6302967   0.71005087    3.0361396   0.47384108 
   21600   -7.6278947   0.70067064    3.1007999   0.46758134 
   21800   -7.6249216   0.69784065    3.1048572   0.46569279 
   22000   -7.6380017   0.71068284     3.042675   0.47426282 
   22200   -7.6247172    0.6961044    3.0666326   0.46453413 
   22400   -7.6220713   0.69998326    3.0355562   0.46712263 
   22600   -7.6145245   0.70539677    3.2129594   0.47073525 
   22800    -7.623748   0.72102879    3.1371911   0.48116703 
   23000   -7.6128991   0.68734281    3.1342419   0.45868723 
   23200   -7.6241256   0.66755123    2.9882027   0.44547964 
   23400   -7.6493996   0.69690919     2.876002    0.4650712 
   23600   -7.6375681   0.72630453    2.9823604   0.48468771 
   23800   -7.6044752   0.71682714    3.1500927   0.47836313 
   24000   -7.6288341   0.72317087    2.9945085   0.48259651 
   24200   -7.6123188   0.67996325     3.141805   0.45376259 
   24400   -7.6545765   0.71005212    2.8529028   0.47384192 
   24600   -7.6104702   0.67764734    3.1369498   0.45221711 
   24800   -7.6060001   0.72420191    3.1369575   0.48328456 
   25000   -7.6078984   0.72511216     3.211468     0.483892 
   25200   -7.6182991    0.7034144    3.1822939   0.46941235 
   25400   -7.6094887   0.67813725    3.1374824   0.45254405 
   25600   -7.6271151   0.69731009    3.0076306   0.46533873 
   25800   -7.6166566   0.69307668    3.0659968   0.46251364 
   26000   -7.6294508    0.7302832    3.0568247   0.48734281 
   26200   -7.5931497   0.72353997    3.3190999   0.48284283 
   26400   -7.6079446   0.71317203    3.2004204   0.47592394 
   26600   -7.6269209   0.69472101    3.0484866   0.46361095 
   26800   -7.6404895   0.70538093    3.0183444   0.47072468 
   27000   -7.6527095   0.72654524     2.922787   0.48484834 
   27200   -7.6206848   0.71156491     3.213246   0.47485146 
   27400   -7.5873099   0.70277458    3.2808639   0.46898537 
   27600   -7.6186287   0.72880721    3.1566719   0.48635783 
   27800   -7.6420294   0.70635282    2.9808601   0.47137325 
   28000   -7.6312518   0.68430931    3.0496208   0.45666287 
   28200   -7.6347605   0.70227273     3.036242   0.46865047 
   28400   -7.6257811   0.72224038    3.0800522   0.48197556 
   28600   -7.6234278   0.74653547    3.1939257    0.4981885 
   28800   -7.6270467   0.76956955    2.9821779   0.51355993 
   29000   -7.6160081   0.71974407    3.0798953   0.48030969 
   29200   -7.6478356   0.71828413    2.9352384   0.47933542 
   29400   -7.6339471   0.69122988    2.9038846    0.4612812 
   29600   -7.6347071   0.70085467    3.0699644   0.46770415 
   29800   -7.6219281   0.72817358    3.1338904   0.48593499 
   30000   -7.6021931   0.72289682    3.2965316   0.48241363 
   30200   -7.6174882   0.69966385    3.0839928   0.46690947 
   30400   -7.6547897   0.70852973    2.8734253   0.47282598 
   30600   -7.6155749   0.67567853    3.0927386   0.45090326 
   30800   -7.6373722   0.72122471    3.0329517   0.48129777 
   31000   -7.6128578   0.71642913    3.1586743   0.47809751 
   31200   -7.6080972   0.70176654    3.1993307   0.46831267 
   31400   -7.6383305   0.68354955      2.95035   0.45615586 
   31600    -7.663452   0.70339985    2.8480258   0.46940264 
   31800   -7.6301189   0.69201172    3.0677852   0.46180295 
   32000   -7.6167553   0.70118855    3.1831961   0.46792696 
   32200   -7.6069253   0.69280635    3.2404816   0.46233324 
   32400   -7.6190264   0.69918681    3.2024354   0.46659113 
   32600   -7.6192452   0.69499676    3.1751098   0.46379497 
   32800   -7.6444426   0.68824488    2.9499355   0.45928921 
   33000   -7.6566008   0.67679514    2.8507033   0.45164841 
   33200    -7.653257   0.70146178    2.9282132    0.4681093 
   33400   -7.6204018   0.69980545    3.1552076   0.46700397 
   33600   -7.6184494   0.70619961    3.0610015   0.47127101 
   33800   -7.6300251   0.71201726    3.1720264   0.47515333 
   34000   -7.6339642   0.69624965    3.0080092   0.46463107 
   34200   -7.6356044   0.66742312    2.9631019   0.44539414 
   34400   -7.6515745   0.69197246    2.8939986   0.46177675 
   34600   -7.6396806   0.73032204    2.9317588   0.48736873 
   34800   -7.6173125   0.71291883    3.1636296   0.47575497 
   35000   -7.6163224   0.69553531    3.0676672   0.46415436 
   35200   -7.6301707   0.68077232    2.9984203   0.45430252 
   35400   -7.6351092   0.67042729    2.9763912   0.44739893 
   35600   -7.6450984   0.70385626    2.9900727   0.46970722 
   35800   -7.6002503    0.7005909    3.2303716   0.46752812 
   36000   -7.6091804   0.71415396    3.2365831   0.47657922 
   36200   -7.6288399   0.71681028    3.1595246   0.47835187 
   36400   -7.6341281   0.68263728    3.0237107   0.45554707 
   36600   -7.6459114   0.68976032    2.9617287   0.46030052 
   36800   -7.6239902    0.6871613    3.0898254    0.4585661 
   37000   -7.6442119    0.7209383    2.9543306   0.48110664 
   37200   -7.6128023   0.69392614    3.2479963    0.4630805 
   37400   -7.6460035   0.72309596    2.9937708   0.48254652 
   37600   -7.6367236   0.69642169    2.9630923   0.46474587 
   37800   -7.6488454   0.68645668    2.8814643   0.45809588 
   38000   -7.6158802   0.66210368    3.0626502    0.4418443 
   38200   -7.6432458   0.73062907    3.0973658   0.48757362 
   38400   -7.6416327   0.73893365    3.0226481   0.49311555 
   38600   -7.6090885    0.6892702    3.1092277   0.45997344 
   38800   -7.6336107   0.69032435    3.0755185   0.46067691 
   39000   -7.6576717   0.69455808    2.8794358   0.46350222 
   39200    -7.664559   0.68653791    2.8931835   0.45815009 
   39400   -7.6300802   0.68700535    2.9707361   0.45846203 
   39600   -7.6131443    0.7014698    3.1990384   0.46811465 
   39800   -7.6167695   0.71350359    3.1173606   0.47614521 
   40000   -7.6004643   0.68246844    3.2210213   0.45543439 
   40200   -7.6429215   0.68371467    2.8584091   0.45626605 
   40400   -7.6212617   0.65423516    3.0836342   0.43659337 
   40600   -7.6350487   0.69476526    2.9653239   0.46364048 
   40800   -7.6360759   0.70827562    3.0636651   0.47265641 
   41000   -7.6354221   0.71218284    3.0972735   0.47526382 
   41200   -7.6276527   0.71083993      3.04534   0.47436766 
   41400   -7.6203279   0.71192681    3.1436959   0.47509297 
   41600   -7.6213322   0.72307251    3.1335821   0.48253087 
   41800   -7.5893085   0.68884896    3.3206023   0.45969233 
   42000     -7.62639   0.70579044    2.9923267   0.47099796 
   42200   -7.6425406   0.69977762    2.9113394    0.4669854 
   42400   -7.6364844   0.69025892    2.9140598   0.46063325 
   42600   -7.6369723   0.72561283    2.9141595   0.48422611 
   42800   -7.5931734   0.70916619    3.2456578   0.47325071 
   43000   -7.6284351   0.73246901    3.1292489   0.48880148 
   43200   -7.6318616   0.70027079    3.0723161   0.46731451 
   43400   -7.6472802   0.70584397    2.9829558   0.47103368 
   43600    -7.631497   0.69748863    3.1049015   0.46545788 
   43800   -7.6198504   0.70426132    3.1958189   0.46997752 
   44000   -7.6021852   0.70748472    3.2354265   0.47212861 
   44200   -7.6150586   0.74739905     3.200295    0.4987648 
   44400   -7.5921285   0.72092601    3.3522924   0.48109844 
   44600   -7.6092542   0.68981469    3.1303069    0.4603368 
   44800   -7.6398566   0.70467013    3.0032605   0.47025034 
   45000    -7.625853   0.69543374    3.0652696   0.46408658 
   45200   -7.6085527   0.71227285    3.1996483   0.47532389 
   45400   -7.5904938   0.72344469    3.3353452   0.48277924 
   45600   -7.6004044    0.7167831    3.2430196   0.47833374 
   45800   -7.6042676   0.70062299    3.2294075   0.46754954 
   46000   -7.6323427   0.71287772    3.0565103   0.47572754 
   46200   -7.6261169    0.6915832    3.0746815   0.46151698 
   46400   -7.6283572   0.69353284    3.0515111   0.46281804 
   46600   -7.6012664   0.70211135    3.2210112   0.46854277 
   46800   -7.6060707   0.72965955    3.2460928   0.48692663 
   47000   -7.6331066   0.73520193    3.1528706   0.49062525 
   47200   -7.6276018   0.69632015    3.0692067   0.46467811 
   47400   -7.6558089   0.72018016    2.8705334   0.48060071 
   47600     -7.62469   0.69905981    3.0964053   0.46650638 
   47800   -7.6371565   0.72425454    3.0903763   0.48331968 
   48000   -7.5918089   0.70671298     3.319769    0.4716136 
   48200   -7.5684616   0.71803464    3.4376786   0.47916893 
   48400   -7.6052299   0.72538448    3.2318507   0.48407372 
   48600   -7.6194407   0.70386682    3.1913651   0.46971426 
   48800   -7.6138406   0.68716855    3.1395945   0.45857094 
   49000   -7.6111412   0.68658771    3.1612291   0.45818332 
   49200   -7.6424517   0.73207846    3.0719477   0.48854084 
   49400   -7.6189389   0.74061516    3.1738017   0.49423767 
   49600   -7.6007059   0.72656327    3.2327207   0.48486038 
   49800   -7.6254144   0.70149628    3.0354559   0.46813232 
   50000   -7.6218765   0.68134603    3.1369702   0.45468537 
   50200   -7.6406912   0.70660296     2.916072   0.47154018 
   50400   -7.6485107   0.73454847    2.9545323   0.49018917 
   50600   -7.6279771   0.74927609    3.1638216   0.50001741 
   50800   -7.6101903   0.73058344    3.1717368   0.48754317 
   51000   -7.6569467   0.71784905     2.985509   0.47904508 
   51200   -7.6181312   0.67245647     3.205923   0.44875306 
   51400   -7.6436136   0.72264711    2.9638517   0.48224699 
   51600   -7.6171037   0.72150108    3.1071768    0.4814822 
   51800   -7.6262456   0.72727744    3.0467552   0.48533696 
   52000   -7.6487439   0.69378197    2.8430004    0.4629843 
   52200   -7.6655103   0.70303667    2.8566213   0.46916027 
   52400   -7.6490183   0.71509042    2.8924806   0.47720415 
   52600   -7.6353029   0.72435851    3.0775741   0.48338906 
   52800   -7.6298545   0.72235461    3.0267358   0.48205179 
   53000   -7.6304915   0.69668379    3.0608915   0.46492078 
   53200   -7.6559812   0.67767571    2.8180256   0.45223605 
   53400   -7.6459906   0.68095471    2.9233074   0.45442423 
   53600   -7.6342414   0.69924525    3.0512943   0.46663013 
   53800   -7.6427902   0.72155255     2.981182   0.48151655 
   54000   -7.6229699   0.70418882    3.0274296   0.46992914 
   54200   -7.6417434    0.7177019    2.9824948   0.47894688 
   54400   -7.6419701   0.69256009    2.8701019   0.46216889 
   54600   -7.6475904   0.67951461    2.7464672   0.45346321 
   54800   -7.6505057   0.70716362    2.8840432   0.47191433 
   55000   -7.6134226   0.70444597    3.1430261   0.47010075 
   55200   -7.6259772   0.72119446    3.0616177   0.48127758 
   55400   -7.6200877   0.70031379    3.0515179    0.4673432 
   55600   -7.6345835   0.69034372     2.954977   0.46068984 
   55800   -7.6647745   0.67170759     2.748096   0.44825332 
   56000   -7.6659308   0.67764825    2.7005681   0.45221771 
   56200   -7.6255157   0.67054694    3.0854042   0.44747877 
   56400   -7.6502808     0.717075    2.9964979   0.47852853 
   56600   -7.6284584   0.71200134    3.0065943    0.4751427 
   56800   -7.6090282   0.70400173    3.1705182   0.46980429 
   57000   -7.6259379   0.71912357    3.0443189   0.47989561 
   57200   -7.6311662   0.69698134    3.0504467   0.46511935 
   57400    -7.645785   0.68620555    2.8800416   0.45792829 
   57600   -7.6361073   0.68334034    2.9760118   0.45601624 
   57800   -7.6259648   0.72137222    3.0872032   0.48139621 
   58000    -7.615283   0.72089828    3.1823587   0.48107993 
   58200   -7.6141048   0.70161417    3.0767613   0.46821099 
   58400   -7.6405978    0.7024705    2.9833115   0.46878245 
   58600   -7.6554293   0.70251287    2.8693273   0.46881072 
   58800   -7.6445065   0.70500234     3.023798   0.47047203 
   59000   -7.5968099   0.69845843     3.252679   0.46610506 
   59200   -7.6199564   0.72287939    3.1143161   0.48240199 
   59400   -7.6467449   0.71619966    2.8633848   0.47794438 
   59600   -7.6448986   0.69431362    2.9203097   0.46333909 
   59800   -7.6392829   0.69763211    2.9750321   0.46555363 
   60000   -7.6348348    0.7141929    2.9744758   0.47660521 
   60200    -7.624383   0.70804864    3.0067718   0.47250493 
   60400   -7.6146722   0.69543096     3.184935   0.46408472 
   60600   -7.6368816   0.70813478    2.9945635   0.47256242 
   60800   -7.6385763   0.70027606    2.9435939   0.46731802 
   61000   -7.6166256    0.6762098     3.186713   0.45125779 
   61200   -7.6060729    0.6855722    3.1254662   0.45750564 
   61400   -7.6084511   0.71894374    3.1217301    0.4797756 
   61600   -7.6076335     0.714901    3.0905768   0.47707775 
   61800   -7.6450234   0.70590241    2.8811861   0.47107268 
   62000   -7.6395557   0.68704141     2.959444   0.45848609 
   62200   -7.6265051   0.69328818      3.02328   0.46265477 
   62400   -7.6136973   0.70820111    3.0648065   0.47260668 
   62600   -7.6208391   0.72379491    3.0772067   0.48301295 
   62800   -7.6270759   0.71235062    3.0607068   0.47537579 
   63000   -7.6705961   0.70220443    2.8528723   0.46860489 
   63200   -7.6535928   0.67861501    2.8771729   0.45286287 
   63400   -7.6398265    0.6950805    2.8921863   0.46385085 
   63600     -7.61888   0.70536712    3.0652128   0.47071546 
   63800    -7.610577   0.71067848    3.0870114   0.47425991 
   64000   -7.6343833   0.72723299      3.00731    0.4853073 
   64200   -7.6323701   0.67747089    3.0184336   0.45209936 
   64400   -7.6468931   0.68465071    2.9024658    0.4568907 
   64600   -7.6547076   0.71423333    2.9026876   0.47663219 
   64800   -7.6404935   0.71570793    3.0430165   0.47761623 
   65000   -7.6232695   0.70387502    3.0235071   0.46971973 
   65200   -7.6205911   0.70309726    3.1261673   0.46920071 
   65400   -7.5949968   0.67954963    3.2964609   0.45348657 
   65600   -7.6196348   0.69521233    3.0065719   0.46393883 
   65800   -7.6483157   0.70620174    2.9045943   0.47127243 
   66000   -7.6292275   0.68659024    3.0698855   0.45818501 
   66200   -7.6508723   0.73470285    2.9119168   0.49029219 
   66400    -7.612885   0.72197075    3.1455508   0.48179563 
   66600   -7.6059846   0.70823877    3.1238026   0.47263181 
   66800   -7.6476464   0.69789423    2.9068208   0.46572855 
   67000   -7.6629017   0.70920239    2.8159026   0.47327487 
   67200   -7.6116305   0.68191793    3.0843313   0.45506702 
   67400    -7.619371   0.71166117    3.1049191    0.4749157 
   67600    -7.620231   0.71396011     3.020704   0.47644985 
   67800   -7.6589204   0.70167637     2.906032    0.4682525 
   68000   -7.6642451    0.6901023    2.7042501   0.46052873 
   68200   -7.6485001   0.69984058    2.9590636   0.46702741 
   68400   -7.6090923   0.68767164    3.1205374   0.45890667 
   68600   -7.6215364   0.70966049    3.0717591   0.47358058 
   68800   -7.6151263   0.69397443    3.0927917   0.46311273 
   69000    -7.640188   0.68157484     2.943768   0.45483806 
   69200   -7.6305309   0.64491946     2.992417   0.43037669 
   69400   -7.6421354   0.68502125    2.9796251   0.45713797 
   69600   -7.6341392   0.69956285    2.9945041   0.46684208 
   69800   -7.6280116   0.70631141    2.9863904   0.47134562 
   70000    -7.604107   0.68719496    3.1279427   0.45858856 
   70200   -7.6343647   0.71167207    3.0146187   0.47492297 
   70400   -7.6477955   0.69864164    2.8884251   0.46622732 
   70600   -7.6425802    0.6799376    2.8916421   0.45374548 
   70800   -7.6382008   0.70495107    2.9962216   0.47043782 
   71000   -7.6178968   0.71584361    3.0409133   0.47770678 
   71200   -7.6094588   0.70174091    3.2022041   0.46829557 
   71400   -7.6125849   0.68617308    3.1453383   0.45790663 
   71600   -7.6357539   0.69468471    3.0450619   0.46358673 
   71800   -7.6420053   0.68547718    2.9167092   0.45744223 
   72000   -7.6507423   0.67478733    2.8730885   0.45030853 
   72200   -7.6483838   0.70001268    2.9330999   0.46714226 
   72400   -7.6123618   0.69959342    3.1371002   0.46686248 
   72600   -7.6249906   0.72361588    3.0401344   0.48289348 
   72800   -7.6338524   0.71995274    2.9949321   0.48044895 
   73000   -7.6354795   0.67691871    2.9766766   0.45173087 
   73200   -7.6259005   0.66456095    2.9992812   0.44348412 
   73400   -7.6262933   0.68680984    3.0967589   0.45833156 
   73600    -7.630302    0.7040511     3.061177   0.46983723 
   73800   -7.6147351   0.69534873    3.1256892   0.46402985 
   74000   -7.6153593   0.69149025     3.072069   0.46145496 
   74200   -7.6364268   0.68277974    2.9639943   0.45564214 
   74400   -7.6396189   0.66188077    2.9013606   0.44169554 
   74600   -7.6599081   0.71007023    2.7221886   0.47385401 
   74800   -7.6247912   0.70755359    3.1210116   0.47217457 
   75000   -7.6231647   0.70485121    3.0466258   0.47037118 
   75200   -7.6365895   0.70669479    3.0436741   0.47160146 
   75400   -7.6224765   0.67994987    2.9572194   0.45375367 
   75600   -7.6536205   0.69969071    2.9073439    0.4669274 
   75800   -7.6275759   0.67748652    3.0487896   0.45210979 
   76000    -7.636062   0.71303229    3.0539658   0.47583069 
   76200   -7.6038683   0.70714475    3.1470639   0.47190173 
   76400   -7.6222464   0.71622617    3.0508298   0.47796207 
   76600   -7.6461721    0.6910485    2.9803953   0.46116016 
   76800   -7.6331594   0.67014322    2.9007709   0.44720935 
   77000   -7.6182716   0.67609456    3.1331315   0.45118089 
   77200   -7.6441326   0.72676344    2.9806579   0.48499395 
   77400   -7.6373925   0.73409935    3.0293376   0.48988946 
   77600   -7.6306253   0.71397962    2.9945607   0.47646287 
   77800   -7.6498683   0.67688404    2.8581128   0.45170774 
   78000   -7.6366305   0.66756532     2.983822   0.44548904 
   78200   -7.6441269   0.70672361    3.0013374   0.47162069 
   78400   -7.6194658   0.70253049    3.1090828   0.46882248 
   78600    -7.626008   0.71896192    3.0392402   0.47978773 
   78800   -7.6257132   0.70381767    3.0443366   0.46968146 
   79000   -7.6463525   0.67062294    2.7742575   0.44752949 
   79200   -7.6375305   0.66495068    2.9639006    0.4437442 
   79400   -7.6407864   0.70125867    2.8891901   0.46797375 
   79600   -7.6194858   0.69933258     3.101385   0.46668841 
   79800   -7.6313547   0.71683981     3.123545   0.47837158 
   80000   -7.6308094   0.70564302     3.001183   0.47089958 
   80200   -7.6687585    0.6983978    2.7667238    0.4660646 
   80400   -7.6390483   0.66313737     2.925601   0.44253412 
   80600    -7.619993   0.67723205    3.0853646   0.45193998 
   80800   -7.6208765   0.69981089     3.049686    0.4670076 
   81000    -7.637849   0.72316223    2.9851359   0.48259074 
   81200   -7.6364486   0.72008235    2.9979651   0.48053543 
   81400   -7.6296194     0.692231    3.0633928   0.46194928 
   81600   -7.6229539   0.65891282    3.1143808   0.43971493 
   81800   -7.6285821   0.67764277    3.0293655   0.45221406 
   82000   -7.6184848   0.71544611    3.1153197   0.47744151 
   82200   -7.6002902    0.6994399    3.2264497   0.46676003 
   82400   -7.6205959   0.69644751    3.0535375    0.4647631 
   82600   -7.6306778   0.68589482    2.9973685   0.45772093 
   82800   -7.6571337   0.70160123    2.9177394   0.46820235 
   83000   -7.6236677   0.68482694    3.0480238    0.4570083 
   83200   -7.6081043   0.70702947    3.1565003    0.4718248 
   83400   -7.6050251   0.72178519    3.1378354    0.4816718 
   83600    -7.592398   0.69496732    3.2400222   0.46377532 
   83800   -7.6181086   0.68029914    3.0704748   0.45398675 
   84000   -7.6348025   0.69118316    2.9728418   0.46125002 
   84200   -7.6165215   0.68213987    3.0934168   0.45521513 
   84400   -7.6275089   0.70635317    3.1108459   0.47137349 
   84600   -7.6258023   0.70873766    3.0681284   0.47296474 
   84800   -7.6430931   0.71949839    2.9974876   0.48014574 
   85000   -7.6335332   0.70597412    3.0098719   0.47112054 
   85200    -7.629006   0.70232348    2.9908988   0.46868433 
   85400   -7.6472474   0.73948736    2.9395807   0.49348506 
   85600   -7.6096594   0.72816022    3.2048747   0.48592607 
   85800   -7.6288332   0.73275292    3.0867797   0.48899094 
   86000   -7.6534213   0.71466928    2.9444739   0.47692311 
   86200   -7.6585029   0.71581601     2.863869   0.47768836 
   86400   -7.6338655    0.6983776    2.9178289   0.46605112 
   86600   -7.6027325   0.69879015    3.1840135   0.46632643 
   86800   -7.6112948   0.74238621    3.2086996   0.49541956 
   87000   -7.6045247    0.7134428    3.1754719   0.47610463 
   87200   -7.6233159   0.71173363    3.1340984   0.47496405 
   87400   -7.6430831   0.71684978    3.0027771   0.47837823 
   87600   -7.6313982   0.69341495    2.9649346   0.46273938 
   87800   -7.6040323   0.66059691    3.0952558   0.44083878 
   88000   -7.6215679   0.69153643    3.0463917   0.46148577 
   88200    -7.633884    0.7393767    3.0303185   0.49341121 
   88400   -7.5945625   0.70233199    3.2409832   0.46869001 
   88600   -7.6494302   0.71701219    2.9594844   0.47848661 
   88800   -7.6376436   0.68076036    3.0125121   0.45429453 
   89000   -7.6235639   0.67753672    3.0314846   0.45214329 
   89200   -7.6373003   0.71617866    2.9877334   0.47793037 
   89400   -7.6157719   0.70810897    3.1479004   0.47254519 
   89600   -7.6190424   0.70736616    3.1425867   0.47204949 
   89800   -7.6131328   0.65073785    3.0961735   0.43425949 
   90000   -7.6589839   0.67761726    2.9073408   0.45219704 
   90200   -7.6403018   0.69008839    2.9225224   0.46051944 
   90400   -7.6182226    0.6942691    3.1463632   0.46330938 
   90600   -7.6146902   0.69866496     3.066544   0.46624289 
   90800   -7.6124441   0.68849448    3.1572559   0.45945578 
   91000   -7.6505674   0.68800496    2.8723496    0.4591291 
   91200   -7.6570848   0.67299158    2.8201717   0.44911016 
   91400   -7.6601489   0.70767554    2.7967265   0.47225595 
   91600   -7.6471276   0.71641437    2.8770377   0.47808767 
   91800   -7.6314075   0.70824929    2.9900326   0.47263883 
   92000   -7.6337872   0.71892295    2.9403326   0.47976173 
   92200   -7.6285076   0.71338124    3.0958947   0.47606356 
   92400   -7.6081598   0.67689392    3.2155913   0.45171433 
   92600   -7.6517462   0.69628018    2.8376747   0.46465144 
   92800   -7.6273853   0.66906821    3.0091938   0.44649196 
   93000   -7.6215777   0.70573038    3.0429974   0.47095788 
   93200   -7.6001536   0.70233505    3.1940869   0.46869206 
   93400   -7.6179244   0.70482537    3.2216017   0.47035394 
   93600   -7.6212048    0.6870321    3.0453004   0.45847988 
   93800   -7.6174019   0.67442058    3.1593283   0.45006378 
   94000   -7.6277437   0.71095445    3.0338409   0.47444408 
   94200   -7.6016355    0.7211765    3.1561172    0.4812656 
   94400   -7.6045741   0.71075773    3.1937917    0.4743128 
   94600   -7.6000577   0.66699149    3.2306237    0.4451061 
   94800   -7.6466691    0.7016694    2.9899864   0.46824785 
   95000   -7.6206486   0.68270237    3.0868552   0.45559051 
   95200   -7.6101293    0.7114594    3.0713568   0.47478105 
   95400   -7.6203677   0.74752821    3.1312327   0.49885099 
   95600   -7.6144667   0.72357963    3.0848214   0.48286929 
   95800   -7.6239997   0.70818543    3.0863532   0.47259621 
   96000    -7.646626   0.71078946    2.9118931   0.47433397 
   96200   -7.5990538   0.65363875    3.0959129   0.43619536 
   96400   -7.6120595   0.68914582     3.053539   0.45989044 
   96600   -7.5894073   0.70804322    3.3673348   0.47250131 
   96800   -7.6136145   0.72344195    3.1191814   0.48277741 
   97000   -7.6282215   0.70453985    2.9279271   0.47016339 
   97200   -7.6506756   0.71378332    2.8454724   0.47633188 
   97400   -7.6354438     0.702708     3.044592   0.46894094 
   97600   -7.6126388   0.69578742    3.1465677    0.4643226 
   97800   -7.5985031    0.7235591     3.202111   0.48285559 
   98000   -7.6041328   0.75678419    3.1284922   0.50502782 
   98200   -7.5933462   0.70255615    3.2993307   0.46883961 
   98400   -7.6208837   0.70888006    3.0692196   0.47305977 
   98600   -7.6328579   0.69861374    3.0270317    0.4662087 
   98800   -7.6317472   0.68203534    3.0130843   0.45514537 
   99000   -7.6393644    0.6975437    3.0049846   0.46549463 
   99200   -7.6226333   0.72120406    3.0493141   0.48128399 
   99400   -7.6338476   0.74960663    3.0539218   0.50023799 
   99600   -7.6156075   0.70798965    3.1321829   0.47246556 
   99800   -7.6245688   0.70418566     3.071161   0.46992704 
  100000    -7.620226   0.69331332    3.0459706   0.46267155 
  100200   -7.6263395   0.70482785    2.9895825   0.47035559 
  100400   -7.6017461   0.70710507    3.2134969   0.47187526 
  100600   -7.5989319   0.74684171    3.2593362   0.49839286 
  100800    -7.594143   0.71777925    3.3288626    0.4789985 
  101000   -7.6431503    0.7329551    2.9606526   0.48912586 
  101200   -7.6186802   0.69006382    3.0669314   0.46050305 
  101400   -7.6526049   0.71449389    2.8956374   0.47680607 
  101600   -7.6391902   0.71415333    2.9740375    0.4765788 
  101800   -7.5917974   0.71043534    3.1972799   0.47409766 
  102000   -7.6195084   0.74118832    3.1153866   0.49462016 
  102200   -7.6316363   0.72149844    3.0975295   0.48148044 
  102400   -7.6310912   0.70798208    3.0582073   0.47246051 
  102600   -7.6229753   0.69415331    3.0081353   0.46323211 
  102800   -7.6293556   0.70757972    3.1149432     0.472192 
  103000   -7.6281729   0.73281257    2.9437579   0.48903074 
  103200   -7.5928573   0.72073838    3.2861773   0.48097323 
  103400   -7.6209115   0.72234898    3.0998834   0.48204804 
  103600   -7.6194821   0.67931374     3.077521   0.45332916 
  103800   -7.6462212   0.70575008    2.9407565   0.47097102 
  104000   -7.6346603   0.71719479    3.0490503   0.47860847 
  104200   -7.6160645   0.72709543    3.1290288    0.4852155 
  104400   -7.5829537   0.70606216    3.2767909   0.47117929 
  104600   -7.6128751   0.70076595    3.0994767   0.46764494 
  104800   -7.6380164   0.69338514    3.0386485   0.46271948 
  105000   -7.6450227   0.69730195    2.8788283    0.4653333 
  105200   -7.6347405   0.71847222    3.0328041   0.47946094 
  105400   -7.6273435   0.73628701    2.9573345   0.49134936 
  105600   -7.6221063   0.72221722    3.1055922    0.4819601 
  105800   -7.6185229   0.70169607    3.1219954   0.46826565 
  106000   -7.6271256   0.69948585    3.0525054   0.46679069 
  106200    -7.627224    0.7032436    2.9849113   0.46929837 
  106400   -7.6315295   0.70872459    2.9972406   0.47295601 
  106600   -7.6138549    0.6988965    3.1349264    0.4663974 
  106800   -7.6150153   0.72926229    3.1468536   0.48666152 
  107000   -7.5966484    0.7139863     3.165142   0.47646733 
  107200   -7.6189056    0.6987547    3.1019347   0.46630277 
  107400    -7.626542   0.68168797    3.0015652   0.45491356 
  107600   -7.6087973   0.66969319    3.1788431   0.44690903 
  107800   -7.6388825   0.72729862    3.0487899    0.4853511 
  108000   -7.5963505   0.72122366    3.2677338   0.48129707 
  108200   -7.6179059    0.7368966    3.1235768   0.49175616 
  108400   -7.6426239   0.70046685    2.8630341   0.46744535 
  108600   -7.5881272   0.64229928    3.1341222   0.42862815 
  108800   -7.6104079   0.69938264     3.090579   0.46672181 
  109000   -7.5926953   0.69633664    3.2529889   0.46468911 
  109200   -7.6151608   0.70860748    3.0707352   0.47287787 
  109400   -7.6456025   0.69560346    2.9254903   0.46419984 
  109600   -7.6547867   0.69742808    2.9282774   0.46541747 
  109800   -7.6351785   0.69848004    2.9598808   0.46611948 
  110000   -7.6301625   0.70898447    3.0147969   0.47312944 
  110200   -7.6017966   0.69242898     3.189825    0.4620814 
  110400    -7.634239   0.72809889    3.0179492   0.48588515 
  110600   -7.6341993    0.7192111    2.9819923   0.47995402 
  110800    -7.640103   0.69060557    2.9132406   0.46086458 
  111000   -7.6270206   0.67822326    3.1160668   0.45260144 
  111200   -7.5962739   0.68487687    3.2274714   0.45704162 
  111400   -7.6185894   0.72391331    3.1686828   0.48309197 
  111600   -7.6017995   0.69354731    3.2361596    0.4628277 
  111800   -7.6231585   0.69954406    3.0926837   0.46682954 
  112000   -7.6398596   0.70821537    3.0188529   0.47261619 
  112200   -7.6246564   0.69504668    3.0661529   0.46382828 
  112400   -7.6386051   0.71591942    3.0572216   0.47775737 
  112600   -7.6050605   0.69329508    3.1773269   0.46265938 
  112800   -7.6143934   0.70974636    3.0726656   0.47363788 
  113000   -7.6301481   0.71034406    3.0616764   0.47403674 
  113200   -7.6373913   0.68737088    3.0378669   0.45870596 
  113400   -7.6423887   0.69101539    2.8916392   0.46113806 
  113600   -7.6320511    0.7189012    2.9827732   0.47974721 
  113800   -7.6186496    0.7281719    3.1555579   0.48593387 
  114000   -7.6056029   0.70551946    3.1190233   0.47081712 
  114200    -7.640438   0.72298056    2.9876586   0.48246951 
  114400    -7.623309   0.69747361    3.0632925   0.46544785 
  114600   -7.6385179   0.71410281    3.0235804   0.47654508 
  114800   -7.6178487   0.69717679    3.0303854   0.46524977 
  115000   -7.6134705   0.69188184    3.1468036   0.46171628 
  115200   -7.6107435   0.68465904    3.0785064   0.45689625 
  115400   -7.6490443   0.71455098    2.9605257   0.47684417 
  115600   -7.6483191    0.7024462    2.8507831   0.46876623 
  115800   -7.6547136     0.709493    2.9167233    0.4734688 
  116000    -7.605495   0.68452438    3.1224992    0.4568064 
  116200   -7.6257735   0.72990771    3.0604351   0.48709223 
  116400   -7.6211349   0.72453853    3.0917558    0.4835092 
  116600   -7.6301197   0.68550702    3.0273774   0.45746214 
  116800   -7.6463817   0.68407897    2.8931576   0.45650916 
  117000   -7.6034524   0.66596249      3.18736   0.44441941 
  117200   -7.6225062   0.71143242    3.1075708   0.47476304 
  117400   -7.6082684   0.70023379    3.1648155   0.46728981 
  117600   -7.6083711   0.69541602    3.2046349   0.46407476 
  117800   -7.6274668   0.68214346    3.0411142   0.45521752 
  118000   -7.6457713   0.66462395    2.9174346   0.44352616 
  118200   -7.6403192   0.68652739    2.8984112   0.45814307 
  118400   -7.6181922   0.68992307    3.1008651   0.46040912 
  118600   -7.6031667   0.69215655    3.1919949    0.4618996 
  118800   -7.6091911   0.71220452    3.1279662   0.47527829 
  119000   -7.6119097   0.71621495    3.0958376   0.47795459 
  119200   -7.6351179   0.72076618    2.9146116   0.48099178 
  119400   -7.6464858   0.69959773    2.9095392   0.46686535 
  119600   -7.6618005   0.70628804    2.8596583   0.47133002 
  119800   -7.6388529    0.7206947    3.0491636   0.48094408 
  120000   -7.6307771   0.73592637     3.122177   0.49110869 
  120200   -7.6407989   0.73562732    2.9874692   0.49090912 
  120400   -7.6133417   0.68474087    3.1443665   0.45695086 
  120600   -7.6257861   0.69045782    3.1598454   0.46076598 
  120800   -7.6029524   0.70274267    3.2354983   0.46896408 
  121000   -7.5764889   0.71322993      3.42157   0.47596258 
  121200   -7.5970062    0.7105284    3.2127278   0.47415976 
  121400   -7.6048385    0.6855577    3.0874891   0.45749596 
  121600   -7.6138508   0.68838938    3.0765041   0.45938564 
  121800   -7.5985648   0.68029662     3.187712   0.45398506 
  122000   -7.6046577   0.71495362    3.2008436   0.47711286 
  122200   -7.5987762   0.75591117    3.3208286   0.50444523 
  122400   -7.6251084   0.76458068    3.1104748   0.51023069 
  122600   -7.6245605   0.73062888    3.0814396    0.4875735 
  122800   -7.6138323   0.69572728    3.1426067   0.46428247 
  123000   -7.6163313    0.6850697    3.0892454    0.4571703 
  123200   -7.6371374   0.70456538    3.0129606   0.47018044 
  123400    -7.617249   0.72233879    3.1362678   0.48204124 
  123600   -7.6083421   0.73679511    3.0939387   0.49168843 
  123800   -7.5893751   0.69740129    3.1813863   0.46539959 
  124000   -7.6244729   0.69673194     3.116662   0.46495291 
  124200    -7.637123    0.7060888    3.0451162   0.47119706 
  124400   -7.6007698    0.6820327    3.2638352   0.45514361 
  124600   -7.6273588   0.72460911    3.0133222   0.48355629 
  124800   -7.6321155   0.73138996    3.1134293   0.48808139 
  125000   -7.6180381   0.69263152    3.1796969   0.46221656 
  125200   -7.6406043   0.68951997    2.9323286   0.46014012 
  125400   -7.6389186   0.69789053    2.9790154   0.46572608 
  125600   -7.5981487   0.69754098    3.2355539   0.46549281 
  125800   -7.6101551   0.72239564    3.1507743   0.48207917 
  126000   -7.6170269   0.71777147    3.1234343    0.4789933 
  126200   -7.6308164   0.71183814    3.0549736   0.47503379 
  126400   -7.6347477   0.69726072    3.0281083   0.46530579 
  126600   -7.6356656   0.66740176    2.9431902   0.44537989 
  126800   -7.6456499   0.68588431    2.9580891   0.45771392 
  127000    -7.606054   0.68972114    3.2035133   0.46027437 
  127200   -7.6028986   0.70530359    3.1920428   0.47067307 
  127400   -7.6281002   0.73472315    3.0916959   0.49030574 
  127600   -7.6120638   0.70110619    3.0704718     0.467872 
  127800    -7.629959   0.67944897     3.117237    0.4534194 
  128000   -7.6103093   0.65382633     2.973055   0.43632054 
  128200   -7.6263623   0.70522588    3.1177936   0.47062121 
  128400   -7.6129917   0.70662011    3.0924832   0.47155163 
  128600   -7.6034532   0.70069818    3.2341245   0.46759972 
  128800   -7.5958722   0.68337211    3.2409094   0.45603745 
  129000   -7.6352457   0.69670839    3.0529071    0.4649372 
  129200   -7.6167588   0.65325295    3.0893379   0.43593791 
  129400   -7.6207045   0.68338057    3.1118443   0.45604309 
  129600   -7.5975804   0.70144582    3.2777381   0.46809864 
  129800   -7.5953104    0.6994243    3.2813014   0.46674962 
  130000   -7.6350781   0.71733518    3.0024922   0.47870215 
  130200   -7.6379873   0.69546777    2.9204985   0.46410929 
  130400   -7.6288966   0.69520362    3.0509765   0.46393302 
  130600   -7.5894547   0.70923464    3.2823669   0.47329639 
  130800   -7.5870233   0.70770818    3.3148965   0.47227773 
  131000   -7.6262485   0.71582603    3.1015296   0.47769505 
  131200   -7.6530728   0.71858535    2.8681706   0.47953643 
  131400   -7.6106938   0.67839974    3.0975349   0.45271921 
  131600   -7.6214983   0.70229149    3.0615938   0.46866299 
  131800   -7.6339099   0.72217204     3.035162   0.48192995 
  132000   -7.6197258   0.70936427    3.0342173   0.47338289 
  132200   -7.6036622   0.68827877    3.0733407   0.45931183 
  132400   -7.6104369   0.69411573    3.1824453   0.46320703 
  132600   -7.5856619   0.68738421    3.3063261   0.45871485 
  132800   -7.6151602   0.74022449    3.0701515   0.49397697 
  133000   -7.6001009   0.71693867    3.1992538   0.47843755 
  133200    -7.608597    0.6789905     3.131814   0.45311344 
  133400   -7.6473195   0.71081538    2.8425802   0.47435127 
  133600   -7.5832996   0.65899259    3.2871443   0.43976816 
  133800   -7.6231694   0.72200482    3.0783031   0.48181837 
  134000   -7.6035587   0.70830482    3.2633904   0.47267589 
  134200   -7.6146676    0.6664881    3.0315525   0.44477017 
  134400   -7.6254996   0.66088561    2.9711616   0.44103144 
  134600   -7.6213575   0.68882677     3.032069   0.45967752 
  134800   -7.6409889    0.7388699    2.9919468   0.49307301 
  135000   -7.6140718    0.7178498    3.1337598   0.47904558 
  135200   -7.6151459   0.70291435    3.0523486   0.46907864 
  135400   -7.6362971   0.67914555    2.9663137   0.45321692 
  135600   -7.6325058   0.66845911    2.8820843   0.44608549 
  135800   -7.6321437   0.69420628    3.0031721   0.46326745 
  136000   -7.6350128   0.71566602     3.060451   0.47758827 
  136200   -7.6056951   0.70796785    3.2568181   0.47245102 
  136400   -7.6085052    0.7239703    3.2559157      0.48313 
  136600    -7.601384   0.70789592     3.170657   0.47240301 
  136800   -7.6095594   0.67166392    3.0793056   0.44822417 
  137000   -7.6385782   0.69481842    2.9721014   0.46367596 
  137200   -7.6292537   0.71389959    3.0725506   0.47640947 
  137400   -7.5825604   0.69306242    3.3563236   0.46250412 
  137600   -7.6146728   0.72188262     3.128747   0.48173682 
  137800   -7.6184587   0.70963397    3.1127322   0.47356288 
  138000   -7.6298388   0.70310606    3.0524734   0.46920658 
  138200   -7.6492406   0.70525806    2.9288127   0.47064268 
  138400    -7.628311   0.68389091    3.0977365   0.45638366 
  138600   -7.6247339   0.71784029    3.0860611   0.47903924 
  138800   -7.6099338   0.72646026    3.1321867   0.48479163 
  139000   -7.5925613   0.69479075    3.2994914   0.46365749 
  139200   -7.6083283   0.67375788    3.1218551   0.44962154 
  139400   -7.6260316    0.6821925     3.047899   0.45525025 
  139600   -7.6193976   0.68793666    3.0669559   0.45908353 
  139800    -7.634843   0.71185132    3.0153461   0.47504259 
  140000   -7.6466117     0.726679    2.9676819    0.4849376 
  140200   -7.6206999   0.70172761    3.1363609   0.46828669 
  140400   -7.6395512   0.71174093     2.972337   0.47496892 
  140600   -7.6379802   0.67391807     3.022741   0.44972844 
  140800   -7.6342236   0.67087175    2.8790101   0.44769553 
  141000   -7.6161842   0.69363185    3.0934767   0.46288412 
  141200    -7.612838   0.70684248    3.2717564   0.47170002 
  141400   -7.6362583   0.72875998    2.9938803   0.48632631 
  141600   -7.6341269   0.70560005    3.0070838    0.4708709 
  141800    -7.646361     0.676808    2.8150037   0.45165699 
  142000   -7.6295899   0.66765505    2.9326287   0.44554892 
  142200   -7.6227934   0.69514364    3.0495293   0.46389299 
  142400   -7.6320987    0.7140164    3.0532613   0.47648742 
  142600   -7.6049308   0.69137191    3.1901632   0.46137598 
  142800    -7.641282   0.73150459    2.9142405   0.48815788 
  143000   -7.6390247   0.72733154    2.9741357   0.48537306 
  143200   -7.6441337   0.71271018    2.9429686   0.47561573 
  143400   -7.6467356   0.69305553    2.8415985   0.46249952 
  143600   -7.6519116   0.70556853    2.8931379   0.47084987 
  143800   -7.6043237   0.70594126    3.0774402    0.4710986 
  144000   -7.6076568   0.71426214    3.0956412   0.47665141 
  144200   -7.6261299   0.71630856    3.0174998   0.47801706 
  144400   -7.6523626   0.72503459    2.8433589   0.48384023 
  144600   -7.6491525   0.69181688    2.9551037   0.46167292 
  144800     -7.65974   0.67241425    2.7780013   0.44872489 
  145000   -7.6193804   0.66676991    3.1564206   0.44495823 
  145200   -7.6221346   0.70087202    3.0295801   0.46771573 
  145400   -7.6086329   0.70260346    3.0421961   0.46887118 
  145600   -7.6206037   0.72309036    3.1313472   0.48254278 
  145800   -7.6251429   0.71268674    3.0137858   0.47560009 
  146000      -7.6198   0.66787525    3.1772889   0.44569586 
  146200   -7.6309369   0.67592416    2.9324299   0.45106718 
  146400   -7.6141321   0.69396858    3.0476071   0.46310883 
  146600   -7.6049347   0.70233146    3.1480457   0.46868966 
  146800   -7.5946987   0.68989369    3.2859165   0.46038951 
  147000   -7.6263344   0.70944092    3.0497966   0.47343405 
  147200   -7.6550883   0.71011565    2.8643055   0.47388431 
  147400   -7.6365217   0.67021215    2.9410485   0.44725536 
  147600   -7.6138145   0.67775433    3.1046527   0.45228851 
  147800   -7.6049778   0.70925949    3.2002434   0.47331298 
  148000   -7.5816167   0.68985385    3.2983137   0.46036293 
  148200    -7.621874   0.70532829    3.0093681   0.47068955 
  148400   -7.6722636   0.72830076    2.7688647   0.48601986 
  148600   -7.6483161   0.70227516    2.9641579   0.46865209 
  148800   -7.6117006   0.71439119    3.1695232   0.47673753 
  149000    -7.602348   0.72813621    3.2052076   0.48591005 
  149200   -7.6295294   0.72860387    3.0448973   0.48622214 
  149400   -7.6224536    0.6911853     3.060394   0.46125145 
  149600   -7.6450519   0.70648391    2.9257543   0.47146073 
  149800   -7.6260692   0.69838292    3.0520236   0.46605467 
  150000   -7.5982849   0.71624694    3.2336327   0.47797593 
  150200   -7.5963161   0.73219829    3.2710306   0.48862082 
  150400   -7.6101593    0.7229173    3.0864506   0.48242729 
  150600      -7.6299   0.71671755    3.0638234   0.47828999 
  150800   -7.6328526   0.70971093    2.9949336   0.47361424 
  151000   -7.6394884   0.71359229    3.0175869    0.4762044 
  151200   -7.6055478   0.66489757    3.0845946   0.44370876 
  151400   -7.6363098   0.67952198    2.9028456   0.45346812 
  151600   -7.6455788   0.70532994    2.9032337   0.47069065 
  151800   -7.5899267   0.68986022    3.2566645   0.46036718 
  152000   -7.6034116   0.71380955    3.1366557   0.47634938 
  152200   -7.6203657   0.71180763    3.1802036   0.47501343 
  152400   -7.6151538   0.67757073    3.0675658   0.45216599 
  152600   -7.6353728   0.69612916    2.9536759   0.46455066 
  152800   -7.6234257    0.6905401    3.0378466   0.46082089 
  153000   -7.6157696    0.6994837    3.0940395   0.46678925 
  153200   -7.6234774   0.73243998    3.1247181    0.4887821 
  153400   -7.5806371   0.69921715    3.3874844   0.46661138 
  153600   -7.6441126   0.73125087     2.970203   0.48798857 
  153800   -7.6494909   0.70097867    3.0275746    0.4677869 
  154000     -7.63388   0.69097179    3.0255743   0.46110897 
  154200   -7.6288927   0.71979699    3.0668711   0.48034501 
  154400   -7.6142005   0.72196353    3.1547619   0.48179081 
  154600   -7.6210333   0.71869806    3.1411916   0.47961165 
  154800   -7.6186542   0.70289854    3.1219185    0.4690681 
  155000    -7.648107   0.72668234    2.9823943   0.48493984 
  155200   -7.6215604   0.69788956    3.1329522   0.46572543 
  155400   -7.6470933    0.7249103     2.935986   0.48375729 
  155600   -7.6370464   0.72188574     2.950108    0.4817389 
  155800   -7.5872948   0.71629164    3.2578927   0.47800576 
  156000   -7.5836629   0.72216108    3.3197703   0.48192264 
  156200   -7.6115141   0.71190343    3.1733907   0.47507736 
  156400   -7.6491626   0.72265041    2.9456945   0.48224919 
  156600   -7.6431898   0.70922984    2.9821493   0.47329319 
  156800   -7.6257377   0.69857921    3.0708233   0.46618566 
  157000   -7.6073829   0.72299011    3.2518512   0.48247588 
  157200   -7.5934972   0.72753091    3.2650183   0.48550611 
  157400   -7.6250683   0.72431603      3.18529   0.48336071 
  157600   -7.6488426    0.7251547    2.9368518   0.48392039 
  157800   -7.6594782   0.72743729    2.9299876   0.48544363 
  158000   -7.6439661   0.71842858    2.9429963   0.47943182 
  158200   -7.6065008   0.71754477    3.2126812   0.47884202 
  158400   -7.5796708   0.71294181    3.3229734   0.47577031 
  158600    -7.598334   0.70202014    3.2582456   0.46848191 
  158800    -7.621895   0.69709599     3.029143   0.46519586 
  159000    -7.632114   0.70477922    3.0105928   0.47032313 
  159200   -7.6349517    0.7133614     3.017876   0.47605032 
  159400   -7.6273402   0.71542497    3.0668763   0.47742741 
  159600   -7.6518339    0.7424186    2.9361803   0.49544117 
  159800    -7.613623   0.68221482     3.176133   0.45526515 
  160000   -7.6479383   0.69337882    2.8846236   0.46271526 
  160200   -7.6230045   0.67577913    3.0266639   0.45097039 
  160400   -7.6057836   0.71103261    3.0102647   0.47449624 
  160600   -7.6180786   0.72532271    3.1051382   0.48403251 
  160800   -7.6320552    0.7121678     2.926663   0.47525379 
  161000   -7.6581358   0.71700318    2.9339234    0.4784806 
  161200   -7.6561245   0.71305854     2.968548   0.47584821 
  161400   -7.6160785   0.69244546     3.106381    0.4620924 
  161600   -7.5917942   0.72883971    3.2879101   0.48637952 
  161800   -7.5885932   0.72722381    3.2930881   0.48530117 
  162000   -7.6130587   0.71268564    3.2187973   0.47559936 
  162200   -7.6171465   0.69246035    3.0508734   0.46210234 
  162400   -7.6303029   0.69302658    3.0752551    0.4624802 
  162600   -7.6517353   0.71809682    2.9180928   0.47921043 
  162800   -7.6079546   0.70821069    3.1849541   0.47261307 
  163000     -7.61741   0.74225597    3.1849577   0.49533265 
  163200   -7.6168368   0.71802476    3.2441968   0.47916234 
  163400   -7.6176573   0.68084926     3.163046   0.45435386 
  163600   -7.6442252   0.70755372    2.9966441   0.47217466 
  163800   -7.6512735   0.72327055    2.9176447   0.48266303 
  164000   -7.6316466   0.72025178    3.0390712    0.4806485 
  164200   -7.6060686    0.7241536     3.227251   0.48325232 
  164400   -7.6102982    0.7328166    3.1886825   0.48903343 
  164600   -7.6383839   0.70972599    3.0140334   0.47362428 
  164800   -7.6520079   0.70709774    2.9628162   0.47187036 
  165000   -7.6289497   0.68999571    3.0557736    0.4604576 
  165200   -7.6081293   0.70162231    3.2032654   0.46821643 
  165400   -7.6017031   0.72091491    3.2414071   0.48109103 
  165600   -7.6043072   0.70889157    3.2378641   0.47306745 
  165800   -7.6204062   0.70773246    3.1594973   0.47229393 
  166000   -7.6346351   0.71772967    3.0285167   0.47896541 
  166200   -7.6456432     0.723187    2.9446651   0.48260728 
  166400   -7.6255211   0.69968839     3.049569   0.46692585 
  166600   -7.6473756   0.72350359    2.9035391   0.48281855 
  166800    -7.628401   0.71757874     3.026383   0.47886469 
  167000   -7.6119874   0.70749704    3.1968991   0.47213683 
  167200   -7.6313836   0.71444184    3.0806172   0.47677133 
  167400   -7.6343778   0.68223941    3.0423385   0.45528155 
  167600   -7.6534021   0.69404479    2.8995109   0.46315969 
  167800   -7.6170069   0.69810642    3.0693826   0.46587015 
  168000   -7.6093317   0.71333725    3.1739404    0.4760342 
  168200   -7.6059714   0.70328691     3.204269   0.46932727 
  168400   -7.6195221    0.6953099    3.1619392   0.46400394 
  168600   -7.6628959   0.71195095    2.8149743   0.47510908 
  168800   -7.6429588   0.68201737    2.9822895   0.45513338 
  169000   -7.6133897   0.70200132    3.1648677   0.46846935 
  169200   -7.6190394   0.72974286    3.1208522   0.48698223 
  169400   -7.6215283   0.72118122    3.1299626   0.48126875 
  169600   -7.6182389   0.68156848    3.1247659   0.45483382 
  169800   -7.6457449   0.69734776    2.9023637   0.46536387 
  170000   -7.6452187   0.70985617    2.9488163   0.47371116 
  170200   -7.6255449   0.74199857    3.1255028   0.49516087 
  170400   -7.5998206   0.72587458     3.286059   0.48440079 
  170600   -7.5935354   0.69443596    3.2605856   0.46342073 
  170800   -7.6212486   0.69285932    3.0501547   0.46236858 
  171000   -7.6302127   0.68961855    3.0488374   0.46020591 
  171200   -7.6093068   0.68645933    3.1215003   0.45809765 
  171400   -7.5970721   0.72338518    3.3119349   0.48273953 
  171600   -7.5937369   0.72103019    3.2450428   0.48116796 
  171800    -7.616145   0.71713098    3.1331443   0.47856588 
  172000   -7.6316488   0.70803359     3.084682   0.47249489 
  172200   -7.6549315   0.72144068    2.9367926    0.4814419 
  172400   -7.6335561   0.69621642    2.9879009   0.46460889 
  172600   -7.6266126   0.71485024    3.1260499   0.47704387 
  172800   -7.6249963   0.74765409    3.1005777     0.498935 
  173000   -7.6179517   0.72651736    3.0985507   0.48482974 
  173200   -7.6482513   0.71913427    2.9260166   0.47990275 
  173400   -7.6553618   0.71604677    2.8532989   0.47784235 
  173600   -7.6399741   0.70822598    2.9455021   0.47262328 
  173800   -7.6445657   0.73047546    2.9470103   0.48747111 
  174000   -7.6144725   0.73479838    3.1378203   0.49035594 
  174200   -7.6013848   0.75287645    3.1924105   0.50242005 
  174400   -7.6281871   0.73531306    3.1276744   0.49069941 
  174600   -7.6226774   0.69355048    3.0435288   0.46282982 
  174800   -7.6375438   0.69633303    2.9716886   0.46468671 
  175000   -7.6432504   0.70655764     2.923965   0.47150994 
  175200   -7.6404368   0.73417202    3.0520298   0.48993795 
  175400   -7.6164018   0.72931069    3.1445708   0.48669382 
  175600   -7.6317282   0.72279552    3.0260645   0.48234602 
  175800   -7.6398197   0.68482367    2.9011378   0.45700612 
  176000   -7.6342852   0.68447785    2.9199656   0.45677534 
  176200   -7.6357839   0.71275055    3.0027182   0.47564268 
  176400   -7.6130149   0.71102694    3.1563699   0.47449245 
  176600   -7.6271355   0.72367936    3.0614722   0.48293584 
  176800   -7.6668789   0.70905761    2.8112205   0.47317825 
  177000   -7.6363039   0.66509217    2.9194483   0.44383862 
  177200    -7.650633   0.71202518    2.8679254   0.47515861 
  177400   -7.6401185    0.7263301    2.9699129   0.48470477 
  177600   -7.6402889   0.72851672    2.9943714   0.48616397 
  177800   -7.6387093   0.70938947    2.9114302   0.47339971 
  178000   -7.6618956   0.68495533    2.7275579   0.45709398 
  178200   -7.6491312   0.68023432    2.8640777   0.45394349 
  178400   -7.6308512   0.68884441    3.0743551    0.4596893 
  178600   -7.6391903   0.71162326    2.9625747    0.4748904 
  178800   -7.6044168   0.69281515    3.1701701   0.46233911 
  179000   -7.6333966   0.73378577     3.019411   0.48968019 
  179200   -7.6144775   0.70041962    3.0723023   0.46741383 
  179400   -7.6468419   0.69213898    2.8890714   0.46188788 
  179600   -7.6446025   0.68395724    2.9244599   0.45642792 
  179800   -7.6276743   0.69756982    3.0142044   0.46551206 
  180000   -7.6318787   0.72953662     2.989893   0.48684459 
  180200   -7.6227121   0.71565535    3.0272247   0.47758115 
  180400   -7.6317767   0.70935367    3.0708729   0.47337582 
  180600   -7.6178063   0.68799205    3.0646091   0.45912049 
  180800   -7.6238184   0.69188969    3.0945001   0.46172152 
  181000   -7.6456644   0.70284624    3.0106848    0.4690332 
  181200    -7.660035   0.70193848    2.8675138   0.46842741 
  181400   -7.6378665   0.69238217    3.0370681   0.46205016 
  181600   -7.6459677   0.73320959    2.9560785   0.48929569 
  181800   -7.6354438   0.73635472    3.0742789   0.49139454 
  182000   -7.6131872    0.6955824    3.2255569   0.46418579 
  182200   -7.6534747   0.69130339    2.9120938   0.46133026 
  182400   -7.6536286    0.6915814    2.9249774   0.46151578 
  182600   -7.6144075   0.67226589    3.0712395   0.44862589 
  182800   -7.6320085   0.70668841     3.061391    0.4715972 
  183000   -7.6391365   0.72421023    3.0145639   0.48329011 
  183200   -7.6122209   0.70352062    3.2135711   0.46948323 
  183400   -7.6294672   0.71820438    3.1428618    0.4792822 
  183600   -7.6187002   0.68783893    3.1327872   0.45901831 
  183800   -7.6427372   0.68992606    3.0631966   0.46041111 
  184000    -7.645094   0.68937506    3.0087224   0.46004341 
  184200   -7.6128415   0.69360014    3.1909467   0.46286296 
  184400   -7.6252283   0.73747536    3.1992829   0.49214239 
  184600   -7.6321958   0.72942128    3.0962045   0.48676762 
  184800    -7.616213   0.68772321    3.1054564   0.45894108 
  185000   -7.6227664   0.67964042    3.1683437   0.45354716 
  185200   -7.6657155   0.72428989    2.9096304   0.48334327 
  185400   -7.6298988   0.69573016    3.0406346   0.46428439 
  185600   -7.6198045   0.69448212    3.1176534   0.46345153 
  185800   -7.6437937   0.73079861    2.9495022   0.48768676 
  186000   -7.6210622   0.73703486    3.2262424   0.49184842 
  186200   -7.5909404   0.72598019    3.4176243   0.48447126 
  186400   -7.6232437   0.71724505    3.1230286   0.47864201 
  186600    -7.639231   0.70725231    3.0256237   0.47197351 
  186800   -7.6180928   0.68116771    3.1274873   0.45456637 
  187000   -7.6215008   0.68784549    3.0246908   0.45902268 
  187200   -7.6168924   0.69703329    3.0971489   0.46515401 
  187400   -7.6057524   0.72038958    3.1650818   0.48074046 
  187600   -7.5940939   0.71851359    3.2614808   0.47948855 
  187800   -7.6232217   0.70405022    3.1603425   0.46983665 
  188000   -7.6286357   0.68704221    3.0580217   0.45848662 
  188200   -7.6199089    0.6842034    3.1064741   0.45659219 
  188400   -7.6190877   0.70481108    3.1213877    0.4703444 
  188600   -7.6297762   0.74095797    3.0424256   0.49446645 
  188800   -7.5996734   0.72902691     3.213923   0.48650444 
  189000   -7.6120278   0.71240674    3.1241153   0.47541324 
  189200   -7.6164299   0.67536823    3.1509246   0.45069619 
  189400   -7.6293302   0.67760777     3.013293    0.4521907 
  189600   -7.6520415   0.71313441    2.8964578   0.47589884 
  189800   -7.5858019   0.68497367    3.3746695   0.45710622 
  190000   -7.6277639   0.73836211    3.1986969   0.49273414 
  190200   -7.6122346   0.71095806     3.181886   0.47444648 
  190400   -7.6140548   0.70251613    3.1535546    0.4688129 
  190600   -7.6478547   0.72834021    2.9265724   0.48604619 
  190800   -7.6436126   0.71237356    3.0231861    0.4753911 
  191000    -7.615693   0.67120257     3.066402    0.4479163 
  191200   -7.6455624   0.69230563    2.9691635   0.46199909 
  191400    -7.655463   0.73004587    2.8889694   0.48718443 
  191600   -7.6180436   0.72200346    3.1402211   0.48181745 
  191800    -7.600236   0.70476806    3.1308688   0.47031569 
  192000   -7.6352071   0.70767477    3.0098261   0.47225544 
  192200   -7.6264799   0.66421945    3.0563484   0.44325622 
  192400   -7.6619859   0.70833663     2.848045   0.47269712 
  192600   -7.6335334   0.69948385    3.0737491   0.46678936 
  192800   -7.6278823   0.71048773    3.0564904   0.47413262 
  193000   -7.6104299   0.70388213    3.1309082   0.46972448 
  193200   -7.6367923   0.73198847    3.0849171   0.48848079 
  193400   -7.6380919   0.70755653    2.9988948   0.47217653 
  193600   -7.6532391   0.69789074    2.9389426   0.46572622 
  193800   -7.6378111   0.68791789    3.0395206     0.459071 
  194000   -7.6184827   0.70700986    3.1229139   0.47181172 
  194200    -7.619477   0.72447154     3.137998   0.48346449 
  194400   -7.6183373   0.71151165    3.0816217   0.47481591 
  194600   -7.6091099     0.687043    3.1233349   0.45848715 
  194800   -7.6276616    0.7044225    3.0826856   0.47008509 
  195000   -7.6394138   0.71678564    2.9761499   0.47833543 
  195200   -7.6329681   0.70850846    3.0477157   0.47281178 
  195400     -7.63655   0.71002209    2.9929108   0.47382188 
  195600   -7.6341207   0.69170723     3.017585   0.46159976 
  195800    -7.649414   0.70370798    2.9027863   0.46960826 
  196000   -7.6343247   0.71802482    3.0627766   0.47916237 
  196200   -7.6138019   0.71887296    3.1656321   0.47972837 
  196400   -7.6303794   0.72902683    3.0335498   0.48650439 
  196600   -7.6085942   0.66106931    3.1878615   0.44115403 
  196800   -7.6326751    0.6743591    3.0026936   0.45002275 
  197000   -7.6353041   0.69689147    3.0780664   0.46505937 
  197200   -7.6450673   0.72721429    3.0099322   0.48529482 
  197400   -7.6373461   0.72665023    3.0082514   0.48491841 
  197600   -7.6321954   0.71372393    3.0655311   0.47629224 
  197800   -7.6369733   0.67612499    2.9746803    0.4512012 
  198000   -7.6674006   0.68929244    2.8139104   0.45998828 
  198200   -7.6316584   0.68751121    3.0450605   0.45879961 
  198400   -7.5961497   0.67548839    3.2907578   0.45077637 
  198600   -7.6352418   0.72565631    3.1087843   0.48425513 
  198800   -7.6192099   0.71345869    3.0995942   0.47611524 
  199000   -7.6394104   0.71989012    2.9973743   0.48040715 
  199200   -7.6727577   0.71988732    2.7411185   0.48040528 
  199400   -7.6360803   0.68532003    3.0095622   0.45733736 
  199600   -7.6150027   0.70451521    3.1488309   0.47014695 
  199800   -7.6314531   0.73581576    3.1767049   0.49103488 
  200000    -7.635691   0.73100478    2.9829193   0.48782434 
Loop time of 91.892 on 4 procs for 200000 steps with 1000 atoms

Performance: 940234.544 tau/day, 2176.469 timesteps/s
94.8% CPU use with 4 MPI tasks x no OpenMP threads

MPI task timing breakdown:
Section |  min time  |  avg time  |  max time  |%varavg| %total
---------------------------------------------------------------
Pair    | 56.568     | 58.984     | 62.392     |  28.3 | 64.19
Neigh   | 12.588     | 12.972     | 13.542     |   9.8 | 14.12
Comm    | 11.59      | 15.62      | 18.413     |  64.6 | 17.00
Output  | 1.0608     | 1.0757     | 1.1202     |   2.5 |  1.17
Modify  | 2.0991     | 2.1304     | 2.1853     |   2.4 |  2.32
Other   |            | 1.111      |            |       |  1.21

Nlocal:    250 ave 257 max 245 min
Histogram: 2 0 0 0 0 0 1 0 0 1
Nghost:    1663.75 ave 1677 max 1656 min
Histogram: 1 1 0 1 0 0 0 0 0 1
Neighs:    13766.5 ave 14589 max 13175 min
Histogram: 1 1 0 0 0 1 0 0 0 1

Total # of neighbors = 55066
Ave neighs/atom = 55.066
Neighbor list builds = 17167
Dangerous builds = 1846
#------------------------------------------------------------------------------#


#------------------------- Writing Simulation data ----------------------------#
  write_data        data.run
#------------------------------------------------------------------------------#
Total wall time: 0:01:32
